NAME: tsp30-8
TYPE: TSP
DIMENSION: 30
EDGE_WEIGHT_TYPE: EUC_2D
NODE_COORD_SECTION
0 45 23
1 52 60
2 91 91
3 46 92
4 67 14
5 79 30
6 85 32
7 9 93
8 70 44
9 40 60
10 87 92
11 55 37
12 27 36
13 93 27
14 64 74
15 89 14
16 53 29
17 64 71
18 18 78
19 95 45
20 80 9
21 48 73
22 96 65
23 91 38
24 27 100
25 8 90
26 32 73
27 69 79
28 57 55
29 15 83
EOF